100 8
456 128
263 805
113 313
319 950
726 190
628 277
216 320
794 254
439 374
315 537
327 806
337 966
185 361
342 250
634 478
407 387
339 450
328 756
50 559
892 566
785 133
182 322
392 958
224 401
441 724
797 268
176 287
444 44
435 44
670 126
885 543
353 374
371 610
384 573
467 208
352 768
444 479
847 694
350 432
401 424
227 249
376 360
93 321
65 550
187 371
279 783
493 502
405 700
383 168
160 401
341 371
227 280
464 450
502 472
104 208
230 768
229 252
656 168
171 266
248 240
463 196
303 883
172 863
316 257
950 733
415 634
673 778
495 427
87 588
595 482
558 509
611 410
236 359
366 327
340 71
598 473
798 646
436 436
104 328
596 883
851 674
432 565
652 755
441 868
191 321
467 605
335 133
388 133
759 860
439 467
761 264
594 400
918 726
640 480
469 468
689 128
736 146
81 592
691 863
828 718
